unsat
(define-fun q1 () Bool false)
(define-fun q2 () Bool false)
(define-fun g1 ((x Obj)) Bool (labelOf x sink))
(define-fun g2 ((x Obj)) Bool (labelOf x refrigerator))
(define-fun f ((x1 Obj) (x2 Obj)) Bool (labelOf x1 sink))
(define-fun c1 () Bool false)
(define-fun c2 () Bool false)
(define-fun c3 () Bool true)
97.67user 2.74system 1:40.42elapsed 99%CPU (0avgtext+0avgdata 140536maxresident)k
0inputs+0outputs (0major+31957minor)pagefaults 0swaps
kitchen_abd-1.12.1c
